#######################################
### Exact MIP solver for the HHCRSP ###
#######################################
-- Instance file: new-instances/HHCRSP_50_10_57_0.8_C_RC.txt
-- Max threads: 4
-- Time limit: 999999 seconds
-- Use initial solution: No
Trivial flow violations prevented generating 6184 variables.
Model exported.
Version identifier: 20.1.0.0 | 2020-11-10 | 9bedb6d68
CPXPARAM_Threads                                 4
CPXPARAM_TimeLimit                               999999
Parallel mode: deterministic, using up to 4 threads for concurrent optimization:
 * Starting dual Simplex on 1 thread...
 * Starting Barrier on 3 threads...
Tried aggregator 1 time.
LP Presolve eliminated 1440 rows and 424 columns.
Reduced LP has 7372 rows, 7121 columns, and 63236 nonzeros.
Presolve time = 0.03 sec. (18.36 ticks)
Symmetry aggregator did 5023 additional substitutions.

Iteration log . . .
Iteration:     1   Dual objective     =             0.000000

Dual crossover.
  Dual:  Fixing 110 variables.
      109 DMoves:  Infeasibility  4.42979122e-14  Objective  1.47666667e+02
        0 DMoves:  Infeasibility  3.59712396e-14  Objective  1.47666667e+02
  Dual:  Pushed 2, exchanged 108.
  Primal:  Fixing 29 variables.
       28 PMoves:  Infeasibility  0.00000000e+00  Objective  1.47666667e+02
        0 PMoves:  Infeasibility  0.00000000e+00  Objective  1.47666667e+02
  Primal:  Pushed 4, exchanged 25.

Dual simplex solved model.


Solution status from MIP model:
-- Processing time: 0.06 sec.
-- Memory used: 73.1309 MB
-- Best bound: inf
-- Obj value: 147.667
-- Gap: inf%
-- Total distance: 443
-- Total tardiness: 0
-- Largest tardiness: 0
